NAME : Euclidean Random Tour : n = 100, sample = 11 
COMMENT : Coordinates are generated uniformly sampled from [0, 100000] x [0, 100000] 
DIMENSION : 100 
EDGE_WEIGHT_TYPE : EUC_2D 
TOUR_SECTION 
1
36
58
23
95
81
87
99
12
14
56
16
50
74
57
38
13
54
78
39
77
63
45
24
75
83
8
68
98
69
2
85
28
10
29
27
89
40
80
37
90
35
11
61
93
60
3
33
64
19
41
44
88
4
66
53
7
91
49
31
46
22
26
70
6
97
30
34
42
20
43
82
21
76
94
48
9
65
62
96
92
84
67
72
79
32
17
73
18
55
47
51
52
15
59
25
5
71
86
100
-1
